phon dispersion eigenvectors noden 

#optimize

element 
mass Ar1 39.948 
mass Ar2 119.844 
end

#########################################################################################
#-------------------------LJ Potential---------------------------------------------------
#########################################################################################

#lennard epsilon 12 6 inter
#Ar core Ar core 0.010423316 3.4 0 8.5 0 0

lennard 12 6 
Ar1 core Ar1 core 99497.66760 64.40793836 0.0 8.5
lennard 12 6 
Ar2 core Ar2 core 99497.66760 64.40793836 0.0 8.5
lennard 12 6 
Ar1 core Ar2 core 99497.66760 64.40793836 0.0 8.5

#########################################################################################
#------------------------Conventional----------------------------------------------------
#########################################################################################
#cell 5.3162 5.3162 5.3162 90.0 90.0 90.0 1 1 1 1 1 1
#cell 42.5296 5.3162 5.31624 90.0 90.0 90.0 1 1 1 1 1 1
cell 53.1497 5.315 5.315 90.0 90.0 90.0 1 1 1 1 1 1
cartesian
#absolute_coordinates
Ar1   core     	0.000000	0.000000	0.000000	     0 1 1 1 
Ar1   core     	2.657483	2.657483	0.000000	     0 1 1 1 
Ar1   core     	2.657483	0.000000	2.657483	     0 1 1 1 
Ar1   core     	0.000000	2.657483	2.657483	     0 1 1 1 
Ar1   core     	5.314965	0.000000	0.000000	     0 1 1 1 
Ar1   core     	7.972448	2.657483	0.000000	     0 1 1 1 
Ar1   core     	7.972448	0.000000	2.657483	     0 1 1 1 
Ar1   core     	5.314965	2.657483	2.657483	     0 1 1 1 
Ar1   core     	10.629930	0.000000	0.000000	     0 1 1 1 
Ar1   core     	13.287413	2.657483	0.000000	     0 1 1 1 
Ar1   core     	13.287413	0.000000	2.657483	     0 1 1 1 
Ar1   core     	10.629930	2.657483	2.657483	     0 1 1 1 
Ar1   core     	15.944895	0.000000	0.000000	     0 1 1 1 
Ar1   core     	18.602378	2.657483	0.000000	     0 1 1 1 
Ar1   core     	18.602378	0.000000	2.657483	     0 1 1 1 
Ar1   core     	15.944895	2.657483	2.657483	     0 1 1 1 
Ar1   core     	21.259860	0.000000	0.000000	     0 1 1 1 
Ar1   core     	23.917343	2.657483	0.000000	     0 1 1 1 
Ar1   core     	23.917343	0.000000	2.657483	     0 1 1 1 
Ar1   core     	21.259860	2.657483	2.657483	     0 1 1 1 
Ar2   core    	26.574825	0.000000	0.000000	     0 1 1 1 
Ar2   core    	29.232308	2.657483	0.000000	     0 1 1 1 
Ar2   core    	29.232308	0.000000	2.657483	     0 1 1 1 
Ar2   core    	26.574825	2.657483	2.657483	     0 1 1 1 
Ar2   core    	31.889790	0.000000	0.000000	     0 1 1 1 
Ar2   core    	34.547273	2.657483	0.000000	     0 1 1 1 
Ar2   core    	34.547273	0.000000	2.657483	     0 1 1 1 
Ar2   core    	31.889790	2.657483	2.657483	     0 1 1 1 
Ar2   core    	37.204755	0.000000	0.000000	     0 1 1 1 
Ar2   core    	39.862238	2.657483	0.000000	     0 1 1 1 
Ar2   core    	39.862238	0.000000	2.657483	     0 1 1 1 
Ar2   core    	37.204755	2.657483	2.657483	     0 1 1 1 
Ar2   core    	42.519720	0.000000	0.000000	     0 1 1 1 
Ar2   core    	45.177203	2.657483	0.000000	     0 1 1 1 
Ar2   core    	45.177203	0.000000	2.657483	     0 1 1 1 
Ar2   core    	42.519720	2.657483	2.657483	     0 1 1 1 
Ar2   core    	47.834685	0.000000	0.000000	     0 1 1 1 
Ar2   core    	50.492168	2.657483	0.000000	     0 1 1 1 
Ar2   core    	50.492168	0.000000	2.657483	     0 1 1 1 
Ar2   core    	47.834685	2.657483	2.657483	     0 1 1 1 

#########################################################################################

kpoints
0.5         0.5      0.4999
